db/inputs/16514710717717221362960327572517831792.smt2
(set-logic QF_FP)
(declare-const x0 (_ FloatingPoint 8 24))
(declare-const x1 (_ FloatingPoint 8 24))
(declare-const x2 (_ FloatingPoint 8 24))
(declare-const x3 (_ FloatingPoint 8 24))
(declare-const x4 (_ FloatingPoint 8 24))
(declare-const x5 (_ FloatingPoint 8 24))
(declare-const x6 (_ FloatingPoint 8 24))
(declare-const x7 (_ FloatingPoint 8 24))
(declare-const x8 (_ FloatingPoint 8 24))
(assert (fp.gt (fp.div RNE x2 x3) (fp.neg x0)))
(assert (fp.lt (fp.neg x3) (fp.sub RNE x1 x3)))
(assert (fp.lt (fp.mul RNE x6 x2) (fp.add RNE x7 x2)))
(assert (fp.lt (fp.neg x5) (fp.div RNE x8 x7)))
(assert (fp.gt (fp.add RNE x2 x6) (fp.mul RNE x8 x3)))
(assert (fp.eq (fp.neg x4) (fp.mul RNE x6 x3)))
(assert (fp.geq (fp.div RNE x0 x7) (fp.neg x5)))
(assert (fp.lt (fp.sub RNE x5 x5) (fp.div RNE x3 x8)))
(assert (fp.eq (fp.div RNE x6 x5) (fp.add RNE x5 x1)))
(assert (fp.eq (fp.neg x4) (fp.neg x5)))
(check-sat)
