db/data/16514710717717221362960327572517831792.z3.out
sat
-------------------
28.980631767
